p cnf 198 1188
-1 -85 0
-1 -86 0
85 -85 0
86 -86 0
-15 -91 0
-15 -92 0
91 -91 0
92 -92 0
-29 -97 0
-29 -98 0
97 -97 0
98 -98 0
-43 -103 0
-43 -104 0
103 -103 0
104 -104 0
-57 -109 0
-57 -110 0
109 -109 0
110 -110 0
-71 -115 0
-71 -116 0
115 -115 0
116 -116 0
2 -85 0
2 -86 0
85 -85 0
86 -86 0
16 -91 0
16 -92 0
91 -91 0
92 -92 0
30 -97 0
30 -98 0
97 -97 0
98 -98 0
44 -103 0
44 -104 0
103 -103 0
104 -104 0
58 -109 0
58 -110 0
109 -109 0
110 -110 0
72 -115 0
72 -116 0
115 -115 0
116 -116 0
3 -85 0
3 -86 0
85 -85 0
86 -86 0
17 -91 0
17 -92 0
91 -91 0
92 -92 0
31 -97 0
31 -98 0
97 -97 0
98 -98 0
45 -103 0
45 -104 0
103 -103 0
104 -104 0
59 -109 0
59 -110 0
109 -109 0
110 -110 0
73 -115 0
73 -116 0
115 -115 0
116 -116 0
4 -121 -85 0
-4 121 -85 0
4 121 -86 0
-4 -121 -86 0
18 -121 -91 0
-18 121 -91 0
18 121 -92 0
-18 -121 -92 0
32 -121 -97 0
-32 121 -97 0
32 121 -98 0
-32 -121 -98 0
46 -121 -103 0
-46 121 -103 0
46 121 -104 0
-46 -121 -104 0
60 -121 -109 0
-60 121 -109 0
60 121 -110 0
-60 -121 -110 0
74 -121 -115 0
-74 121 -115 0
74 121 -116 0
-74 -121 -116 0
5 -85 0
5 -86 0
85 -85 0
86 -86 0
19 -91 0
19 -92 0
91 -91 0
92 -92 0
33 -97 0
33 -98 0
97 -97 0
98 -98 0
47 -103 0
47 -104 0
103 -103 0
104 -104 0
61 -109 0
61 -110 0
109 -109 0
110 -110 0
75 -115 0
75 -116 0
115 -115 0
116 -116 0
-6 -85 0
-6 -86 0
85 -85 0
86 -86 0
-20 -91 0
-20 -92 0
91 -91 0
92 -92 0
-34 -97 0
-34 -98 0
97 -97 0
98 -98 0
-48 -103 0
-48 -104 0
103 -103 0
104 -104 0
-62 -109 0
-62 -110 0
109 -109 0
110 -110 0
-76 -115 0
-76 -116 0
115 -115 0
116 -116 0
7 -85 0
7 -86 0
85 -85 0
86 -86 0
21 -91 0
21 -92 0
91 -91 0
92 -92 0
35 -97 0
35 -98 0
97 -97 0
98 -98 0
49 -103 0
49 -104 0
103 -103 0
104 -104 0
63 -109 0
63 -110 0
109 -109 0
110 -110 0
77 -115 0
77 -116 0
115 -115 0
116 -116 0
8 -122 -85 0
-8 122 -85 0
8 122 -86 0
-8 -122 -86 0
22 -122 -91 0
-22 122 -91 0
22 122 -92 0
-22 -122 -92 0
36 -122 -97 0
-36 122 -97 0
36 122 -98 0
-36 -122 -98 0
50 -122 -103 0
-50 122 -103 0
50 122 -104 0
-50 -122 -104 0
64 -122 -109 0
-64 122 -109 0
64 122 -110 0
-64 -122 -110 0
78 -122 -115 0
-78 122 -115 0
78 122 -116 0
-78 -122 -116 0
-9 -85 0
-9 -86 0
85 -85 0
86 -86 0
-23 -91 0
-23 -92 0
91 -91 0
92 -92 0
-37 -97 0
-37 -98 0
97 -97 0
98 -98 0
-51 -103 0
-51 -104 0
103 -103 0
104 -104 0
-65 -109 0
-65 -110 0
109 -109 0
110 -110 0
-79 -115 0
-79 -116 0
115 -115 0
116 -116 0
10 -123 -85 0
-10 123 -85 0
10 123 -86 0
-10 -123 -86 0
24 -123 -91 0
-24 123 -91 0
24 123 -92 0
-24 -123 -92 0
38 -123 -97 0
-38 123 -97 0
38 123 -98 0
-38 -123 -98 0
52 -123 -103 0
-52 123 -103 0
52 123 -104 0
-52 -123 -104 0
66 -123 -109 0
-66 123 -109 0
66 123 -110 0
-66 -123 -110 0
80 -123 -115 0
-80 123 -115 0
80 123 -116 0
-80 -123 -116 0
11 -124 -85 0
-11 124 -85 0
11 124 -86 0
-11 -124 -86 0
25 -124 -91 0
-25 124 -91 0
25 124 -92 0
-25 -124 -92 0
39 -124 -97 0
-39 124 -97 0
39 124 -98 0
-39 -124 -98 0
53 -124 -103 0
-53 124 -103 0
53 124 -104 0
-53 -124 -104 0
67 -124 -109 0
-67 124 -109 0
67 124 -110 0
-67 -124 -110 0
81 -124 -115 0
-81 124 -115 0
81 124 -116 0
-81 -124 -116 0
12 -85 0
12 -86 0
85 -85 0
86 -86 0
26 -91 0
26 -92 0
91 -91 0
92 -92 0
40 -97 0
40 -98 0
97 -97 0
98 -98 0
54 -103 0
54 -104 0
103 -103 0
104 -104 0
68 -109 0
68 -110 0
109 -109 0
110 -110 0
82 -115 0
82 -116 0
115 -115 0
116 -116 0
13 -125 -85 0
-13 125 -85 0
13 125 -86 0
-13 -125 -86 0
27 -125 -91 0
-27 125 -91 0
27 125 -92 0
-27 -125 -92 0
41 -125 -97 0
-41 125 -97 0
41 125 -98 0
-41 -125 -98 0
55 -125 -103 0
-55 125 -103 0
55 125 -104 0
-55 -125 -104 0
69 -125 -109 0
-69 125 -109 0
69 125 -110 0
-69 -125 -110 0
83 -125 -115 0
-83 125 -115 0
83 125 -116 0
-83 -125 -116 0
14 -126 -85 0
-14 126 -85 0
14 126 -86 0
-14 -126 -86 0
28 -126 -91 0
-28 126 -91 0
28 126 -92 0
-28 -126 -92 0
42 -126 -97 0
-42 126 -97 0
42 126 -98 0
-42 -126 -98 0
56 -126 -103 0
-56 126 -103 0
56 126 -104 0
-56 -126 -104 0
70 -126 -109 0
-70 126 -109 0
70 126 -110 0
-70 -126 -110 0
84 -126 -115 0
-84 126 -115 0
84 126 -116 0
-84 -126 -116 0
-163 85 0
163 -85 0
-164 86 0
163 -86 0
-163 -85 0
-164 -86 0
-169 85 163 0
169 -85 0
169 -163 0
-170 86 164 0
170 -86 0
170 -164 0
-169 -91 0
-170 -92 0
-175 91 169 0
175 -91 0
175 -169 0
-176 92 170 0
176 -92 0
176 -170 0
-175 -97 0
-176 -98 0
-181 97 175 0
181 -97 0
181 -175 0
-182 98 176 0
182 -98 0
182 -176 0
-181 -103 0
-182 -104 0
-187 103 181 0
187 -103 0
187 -181 0
-188 104 182 0
188 -104 0
188 -182 0
-187 -109 0
-188 -110 0
-193 109 187 0
193 -109 0
193 -187 0
-194 110 188 0
194 -110 0
194 -188 0
-193 -115 0
-194 -116 0
193 0
194 0
1 -127 -87 0
-1 127 -87 0
1 127 -88 0
-1 -127 -88 0
15 -127 -93 0
-15 127 -93 0
15 127 -94 0
-15 -127 -94 0
29 -127 -99 0
-29 127 -99 0
29 127 -100 0
-29 -127 -100 0
43 -127 -105 0
-43 127 -105 0
43 127 -106 0
-43 -127 -106 0
57 -127 -111 0
-57 127 -111 0
57 127 -112 0
-57 -127 -112 0
71 -127 -117 0
-71 127 -117 0
71 127 -118 0
-71 -127 -118 0
2 -87 0
2 -88 0
87 -87 0
88 -88 0
16 -93 0
16 -94 0
93 -93 0
94 -94 0
30 -99 0
30 -100 0
99 -99 0
100 -100 0
44 -105 0
44 -106 0
105 -105 0
106 -106 0
58 -111 0
58 -112 0
111 -111 0
112 -112 0
72 -117 0
72 -118 0
117 -117 0
118 -118 0
3 -87 0
3 -88 0
87 -87 0
88 -88 0
17 -93 0
17 -94 0
93 -93 0
94 -94 0
31 -99 0
31 -100 0
99 -99 0
100 -100 0
45 -105 0
45 -106 0
105 -105 0
106 -106 0
59 -111 0
59 -112 0
111 -111 0
112 -112 0
73 -117 0
73 -118 0
117 -117 0
118 -118 0
4 -87 0
4 -88 0
87 -87 0
88 -88 0
18 -93 0
18 -94 0
93 -93 0
94 -94 0
32 -99 0
32 -100 0
99 -99 0
100 -100 0
46 -105 0
46 -106 0
105 -105 0
106 -106 0
60 -111 0
60 -112 0
111 -111 0
112 -112 0
74 -117 0
74 -118 0
117 -117 0
118 -118 0
5 -128 -87 0
-5 128 -87 0
5 128 -88 0
-5 -128 -88 0
19 -128 -93 0
-19 128 -93 0
19 128 -94 0
-19 -128 -94 0
33 -128 -99 0
-33 128 -99 0
33 128 -100 0
-33 -128 -100 0
47 -128 -105 0
-47 128 -105 0
47 128 -106 0
-47 -128 -106 0
61 -128 -111 0
-61 128 -111 0
61 128 -112 0
-61 -128 -112 0
75 -128 -117 0
-75 128 -117 0
75 128 -118 0
-75 -128 -118 0
-6 -87 0
-6 -88 0
87 -87 0
88 -88 0
-20 -93 0
-20 -94 0
93 -93 0
94 -94 0
-34 -99 0
-34 -100 0
99 -99 0
100 -100 0
-48 -105 0
-48 -106 0
105 -105 0
106 -106 0
-62 -111 0
-62 -112 0
111 -111 0
112 -112 0
-76 -117 0
-76 -118 0
117 -117 0
118 -118 0
7 -129 -87 0
-7 129 -87 0
7 129 -88 0
-7 -129 -88 0
21 -129 -93 0
-21 129 -93 0
21 129 -94 0
-21 -129 -94 0
35 -129 -99 0
-35 129 -99 0
35 129 -100 0
-35 -129 -100 0
49 -129 -105 0
-49 129 -105 0
49 129 -106 0
-49 -129 -106 0
63 -129 -111 0
-63 129 -111 0
63 129 -112 0
-63 -129 -112 0
77 -129 -117 0
-77 129 -117 0
77 129 -118 0
-77 -129 -118 0
8 -87 0
8 -88 0
87 -87 0
88 -88 0
22 -93 0
22 -94 0
93 -93 0
94 -94 0
36 -99 0
36 -100 0
99 -99 0
100 -100 0
50 -105 0
50 -106 0
105 -105 0
106 -106 0
64 -111 0
64 -112 0
111 -111 0
112 -112 0
78 -117 0
78 -118 0
117 -117 0
118 -118 0
-9 -87 0
-9 -88 0
87 -87 0
88 -88 0
-23 -93 0
-23 -94 0
93 -93 0
94 -94 0
-37 -99 0
-37 -100 0
99 -99 0
100 -100 0
-51 -105 0
-51 -106 0
105 -105 0
106 -106 0
-65 -111 0
-65 -112 0
111 -111 0
112 -112 0
-79 -117 0
-79 -118 0
117 -117 0
118 -118 0
10 -130 -87 0
-10 130 -87 0
10 130 -88 0
-10 -130 -88 0
24 -130 -93 0
-24 130 -93 0
24 130 -94 0
-24 -130 -94 0
38 -130 -99 0
-38 130 -99 0
38 130 -100 0
-38 -130 -100 0
52 -130 -105 0
-52 130 -105 0
52 130 -106 0
-52 -130 -106 0
66 -130 -111 0
-66 130 -111 0
66 130 -112 0
-66 -130 -112 0
80 -130 -117 0
-80 130 -117 0
80 130 -118 0
-80 -130 -118 0
11 -87 0
11 -88 0
87 -87 0
88 -88 0
25 -93 0
25 -94 0
93 -93 0
94 -94 0
39 -99 0
39 -100 0
99 -99 0
100 -100 0
53 -105 0
53 -106 0
105 -105 0
106 -106 0
67 -111 0
67 -112 0
111 -111 0
112 -112 0
81 -117 0
81 -118 0
117 -117 0
118 -118 0
12 -87 0
12 -88 0
87 -87 0
88 -88 0
26 -93 0
26 -94 0
93 -93 0
94 -94 0
40 -99 0
40 -100 0
99 -99 0
100 -100 0
54 -105 0
54 -106 0
105 -105 0
106 -106 0
68 -111 0
68 -112 0
111 -111 0
112 -112 0
82 -117 0
82 -118 0
117 -117 0
118 -118 0
13 -87 0
13 -88 0
87 -87 0
88 -88 0
27 -93 0
27 -94 0
93 -93 0
94 -94 0
41 -99 0
41 -100 0
99 -99 0
100 -100 0
55 -105 0
55 -106 0
105 -105 0
106 -106 0
69 -111 0
69 -112 0
111 -111 0
112 -112 0
83 -117 0
83 -118 0
117 -117 0
118 -118 0
14 -87 0
14 -88 0
87 -87 0
88 -88 0
28 -93 0
28 -94 0
93 -93 0
94 -94 0
42 -99 0
42 -100 0
99 -99 0
100 -100 0
56 -105 0
56 -106 0
105 -105 0
106 -106 0
70 -111 0
70 -112 0
111 -111 0
112 -112 0
84 -117 0
84 -118 0
117 -117 0
118 -118 0
-165 87 0
165 -87 0
-166 88 0
165 -88 0
-165 -87 0
-166 -88 0
-171 87 165 0
171 -87 0
171 -165 0
-172 88 166 0
172 -88 0
172 -166 0
-171 -93 0
-172 -94 0
-177 93 171 0
177 -93 0
177 -171 0
-178 94 172 0
178 -94 0
178 -172 0
-177 -99 0
-178 -100 0
-183 99 177 0
183 -99 0
183 -177 0
-184 100 178 0
184 -100 0
184 -178 0
-183 -105 0
-184 -106 0
-189 105 183 0
189 -105 0
189 -183 0
-190 106 184 0
190 -106 0
190 -184 0
-189 -111 0
-190 -112 0
-195 111 189 0
195 -111 0
195 -189 0
-196 112 190 0
196 -112 0
196 -190 0
-195 -117 0
-196 -118 0
195 0
196 0
1 -89 0
1 -90 0
89 -89 0
90 -90 0
15 -95 0
15 -96 0
95 -95 0
96 -96 0
29 -101 0
29 -102 0
101 -101 0
102 -102 0
43 -107 0
43 -108 0
107 -107 0
108 -108 0
57 -113 0
57 -114 0
113 -113 0
114 -114 0
71 -119 0
71 -120 0
119 -119 0
120 -120 0
2 -89 0
2 -90 0
89 -89 0
90 -90 0
16 -95 0
16 -96 0
95 -95 0
96 -96 0
30 -101 0
30 -102 0
101 -101 0
102 -102 0
44 -107 0
44 -108 0
107 -107 0
108 -108 0
58 -113 0
58 -114 0
113 -113 0
114 -114 0
72 -119 0
72 -120 0
119 -119 0
120 -120 0
3 -89 0
3 -90 0
89 -89 0
90 -90 0
17 -95 0
17 -96 0
95 -95 0
96 -96 0
31 -101 0
31 -102 0
101 -101 0
102 -102 0
45 -107 0
45 -108 0
107 -107 0
108 -108 0
59 -113 0
59 -114 0
113 -113 0
114 -114 0
73 -119 0
73 -120 0
119 -119 0
120 -120 0
4 -131 -89 0
-4 131 -89 0
4 131 -90 0
-4 -131 -90 0
18 -131 -95 0
-18 131 -95 0
18 131 -96 0
-18 -131 -96 0
32 -131 -101 0
-32 131 -101 0
32 131 -102 0
-32 -131 -102 0
46 -131 -107 0
-46 131 -107 0
46 131 -108 0
-46 -131 -108 0
60 -131 -113 0
-60 131 -113 0
60 131 -114 0
-60 -131 -114 0
74 -131 -119 0
-74 131 -119 0
74 131 -120 0
-74 -131 -120 0
5 -132 -89 0
-5 132 -89 0
5 132 -90 0
-5 -132 -90 0
19 -132 -95 0
-19 132 -95 0
19 132 -96 0
-19 -132 -96 0
33 -132 -101 0
-33 132 -101 0
33 132 -102 0
-33 -132 -102 0
47 -132 -107 0
-47 132 -107 0
47 132 -108 0
-47 -132 -108 0
61 -132 -113 0
-61 132 -113 0
61 132 -114 0
-61 -132 -114 0
75 -132 -119 0
-75 132 -119 0
75 132 -120 0
-75 -132 -120 0
6 -133 -89 0
-6 133 -89 0
6 133 -90 0
-6 -133 -90 0
20 -133 -95 0
-20 133 -95 0
20 133 -96 0
-20 -133 -96 0
34 -133 -101 0
-34 133 -101 0
34 133 -102 0
-34 -133 -102 0
48 -133 -107 0
-48 133 -107 0
48 133 -108 0
-48 -133 -108 0
62 -133 -113 0
-62 133 -113 0
62 133 -114 0
-62 -133 -114 0
76 -133 -119 0
-76 133 -119 0
76 133 -120 0
-76 -133 -120 0
7 -134 -89 0
-7 134 -89 0
7 134 -90 0
-7 -134 -90 0
21 -134 -95 0
-21 134 -95 0
21 134 -96 0
-21 -134 -96 0
35 -134 -101 0
-35 134 -101 0
35 134 -102 0
-35 -134 -102 0
49 -134 -107 0
-49 134 -107 0
49 134 -108 0
-49 -134 -108 0
63 -134 -113 0
-63 134 -113 0
63 134 -114 0
-63 -134 -114 0
77 -134 -119 0
-77 134 -119 0
77 134 -120 0
-77 -134 -120 0
8 -135 -89 0
-8 135 -89 0
8 135 -90 0
-8 -135 -90 0
22 -135 -95 0
-22 135 -95 0
22 135 -96 0
-22 -135 -96 0
36 -135 -101 0
-36 135 -101 0
36 135 -102 0
-36 -135 -102 0
50 -135 -107 0
-50 135 -107 0
50 135 -108 0
-50 -135 -108 0
64 -135 -113 0
-64 135 -113 0
64 135 -114 0
-64 -135 -114 0
78 -135 -119 0
-78 135 -119 0
78 135 -120 0
-78 -135 -120 0
9 -136 -89 0
-9 136 -89 0
9 136 -90 0
-9 -136 -90 0
23 -136 -95 0
-23 136 -95 0
23 136 -96 0
-23 -136 -96 0
37 -136 -101 0
-37 136 -101 0
37 136 -102 0
-37 -136 -102 0
51 -136 -107 0
-51 136 -107 0
51 136 -108 0
-51 -136 -108 0
65 -136 -113 0
-65 136 -113 0
65 136 -114 0
-65 -136 -114 0
79 -136 -119 0
-79 136 -119 0
79 136 -120 0
-79 -136 -120 0
-10 -89 0
-10 -90 0
89 -89 0
90 -90 0
-24 -95 0
-24 -96 0
95 -95 0
96 -96 0
-38 -101 0
-38 -102 0
101 -101 0
102 -102 0
-52 -107 0
-52 -108 0
107 -107 0
108 -108 0
-66 -113 0
-66 -114 0
113 -113 0
114 -114 0
-80 -119 0
-80 -120 0
119 -119 0
120 -120 0
11 -89 0
11 -90 0
89 -89 0
90 -90 0
25 -95 0
25 -96 0
95 -95 0
96 -96 0
39 -101 0
39 -102 0
101 -101 0
102 -102 0
53 -107 0
53 -108 0
107 -107 0
108 -108 0
67 -113 0
67 -114 0
113 -113 0
114 -114 0
81 -119 0
81 -120 0
119 -119 0
120 -120 0
12 -89 0
12 -90 0
89 -89 0
90 -90 0
26 -95 0
26 -96 0
95 -95 0
96 -96 0
40 -101 0
40 -102 0
101 -101 0
102 -102 0
54 -107 0
54 -108 0
107 -107 0
108 -108 0
68 -113 0
68 -114 0
113 -113 0
114 -114 0
82 -119 0
82 -120 0
119 -119 0
120 -120 0
13 -89 0
13 -90 0
89 -89 0
90 -90 0
27 -95 0
27 -96 0
95 -95 0
96 -96 0
41 -101 0
41 -102 0
101 -101 0
102 -102 0
55 -107 0
55 -108 0
107 -107 0
108 -108 0
69 -113 0
69 -114 0
113 -113 0
114 -114 0
83 -119 0
83 -120 0
119 -119 0
120 -120 0
-14 -89 0
-14 -90 0
89 -89 0
90 -90 0
-28 -95 0
-28 -96 0
95 -95 0
96 -96 0
-42 -101 0
-42 -102 0
101 -101 0
102 -102 0
-56 -107 0
-56 -108 0
107 -107 0
108 -108 0
-70 -113 0
-70 -114 0
113 -113 0
114 -114 0
-84 -119 0
-84 -120 0
119 -119 0
120 -120 0
-167 89 0
167 -89 0
-168 90 0
167 -90 0
-167 -89 0
-168 -90 0
-173 89 167 0
173 -89 0
173 -167 0
-174 90 168 0
174 -90 0
174 -168 0
-173 -95 0
-174 -96 0
-179 95 173 0
179 -95 0
179 -173 0
-180 96 174 0
180 -96 0
180 -174 0
-179 -101 0
-180 -102 0
-185 101 179 0
185 -101 0
185 -179 0
-186 102 180 0
186 -102 0
186 -180 0
-185 -107 0
-186 -108 0
-191 107 185 0
191 -107 0
191 -185 0
-192 108 186 0
192 -108 0
192 -186 0
-191 -113 0
-192 -114 0
-197 113 191 0
197 -113 0
197 -191 0
-198 114 192 0
198 -114 0
198 -192 0
-197 -119 0
-198 -120 0
197 0
198 0
-85 92 98 104 110 116 0
-86 0
-91 98 104 110 116 0
-92 85 0
-97 104 110 116 0
-98 85 91 0
-103 110 116 0
-104 85 91 97 0
-109 116 0
-110 85 91 97 103 0
-115 0
-116 85 91 97 103 109 0
-87 94 100 106 112 118 0
-88 0
-93 100 106 112 118 0
-94 87 0
-99 106 112 118 0
-100 87 93 0
-105 112 118 0
-106 87 93 99 0
-111 118 0
-112 87 93 99 105 0
-117 0
-118 87 93 99 105 111 0
-89 96 102 108 114 120 0
-90 0
-95 102 108 114 120 0
-96 89 0
-101 108 114 120 0
-102 89 95 0
-107 114 120 0
-108 89 95 101 0
-113 120 0
-114 89 95 101 107 0
-119 0
-120 89 95 101 107 113 0
